
Gurobi 9.5.1 (linux64) logging started Fri Apr  8 21:29:06 2022

Set parameter LogFile to value "logs/CRVRP_5-4-11-100_3_0.LOG"
Set parameter Seed to value 102133098
Set parameter Threads to value 2
Set parameter TimeLimit to value 60
Set parameter Symmetry to value 2
Set parameter Cuts to value 2
Set parameter PreDepRow to value 1
Set parameter ScaleFlag to value 1
Set parameter NormAdjust to value 0
Gurobi Optimizer version 9.5.1 build v9.5.1rc2 (linux64)
Thread count: 4 physical cores, 8 logical processors, using up to 2 threads
Optimize a model with 1007 rows, 810 columns and 4018 nonzeros
Model fingerprint: 0x3d333c2b
Variable types: 32 continuous, 778 integer (522 binary)
Coefficient statistics:
  Matrix range     [9e-01, 1e+06]
  Objective range  [1e+00, 1e+00]
  Bounds range     [1e+00, 1e+04]
  RHS range        [1e+00, 1e+06]
Presolve removed 621 rows and 515 columns
Presolve time: 0.02s
Presolved: 386 rows, 295 columns, 1917 nonzeros
Variable types: 15 continuous, 280 integer (230 binary)

Root relaxation: objective 4.231442e+02, 153 iterations, 0.00 seconds (0.00 work units)

    Nodes    |    Current Node    |     Objective Bounds      |     Work
 Expl Unexpl |  Obj  Depth IntInf | Incumbent    BestBd   Gap | It/Node Time

     0     0  423.14425    0    7          -  423.14425      -     -    0s
H    0     0                     917.9358061  423.14425  53.9%     -    0s
H    0     0                     423.1442497  423.14425  0.00%     -    0s

Explored 1 nodes (300 simplex iterations) in 0.03 seconds (0.02 work units)
Thread count was 2 (of 8 available processors)

Solution count 2: 423.144 917.936 

Optimal solution found (tolerance 1.00e-04)
Best objective 4.231442497195e+02, best bound 4.231442497195e+02, gap 0.0000%
Discarded solution information

Gurobi 9.5.1 (linux64) logging started Sat Apr  9 13:41:21 2022

Set parameter LogFile to value "logs/CRVRP_5-4-11-100_3_0.LOG"
Set parameter Seed to value 64922698
Set parameter Threads to value 2
Set parameter TimeLimit to value 60
Set parameter Symmetry to value 2
Set parameter Cuts to value 2
Set parameter PreDepRow to value 1
Set parameter ScaleFlag to value 1
Set parameter NormAdjust to value 0
Gurobi Optimizer version 9.5.1 build v9.5.1rc2 (linux64)
Thread count: 4 physical cores, 8 logical processors, using up to 2 threads
Optimize a model with 1007 rows, 810 columns and 4018 nonzeros
Model fingerprint: 0x3d333c2b
Variable types: 32 continuous, 778 integer (522 binary)
Coefficient statistics:
  Matrix range     [9e-01, 1e+06]
  Objective range  [1e+00, 1e+00]
  Bounds range     [1e+00, 1e+04]
  RHS range        [1e+00, 1e+06]
Presolve removed 621 rows and 515 columns
Presolve time: 0.01s
Presolved: 386 rows, 295 columns, 1917 nonzeros
Variable types: 15 continuous, 280 integer (230 binary)

Root relaxation: objective 4.231442e+02, 177 iterations, 0.00 seconds (0.00 work units)

    Nodes    |    Current Node    |     Objective Bounds      |     Work
 Expl Unexpl |  Obj  Depth IntInf | Incumbent    BestBd   Gap | It/Node Time

H    0     0                     423.1442497  423.14425  0.00%     -    0s
     0     0  423.14425    0   24  423.14425  423.14425  0.00%     -    0s

Explored 1 nodes (177 simplex iterations) in 0.02 seconds (0.02 work units)
Thread count was 2 (of 8 available processors)

Solution count 1: 423.144 

Optimal solution found (tolerance 1.00e-04)
Best objective 4.231442497195e+02, best bound 4.231442497195e+02, gap 0.0000%
Discarded solution information
